p cnf 18 14
-7 2 -1 9 0
9 -13 14 0
17 11 -10 0
1 5 7 -18 -17 -14 -10 -8 -6 -4 -2 0
9 17 15 0
3 7 11 13 -17 -14 18 -6 -4 -2 0
-16 -10 15 0
-16 -12 -18 0
2 3 5 7 9 16 -14 -11 -6 -4 0
8 -7 11 0
5 9 13 -16 -14 -11 -6 -4 -2 0
4 0
-5 0
1 7 10 13 -8 -6 0
